20
 N1C3W4_A 
 150 50 0 
97
95
92
91
90
90
86
85
85
82
82
81
80
79
78
76
71
70
69
67
63
63
63
62
58
58
56
55
54
53
52
51
51
48
47
46
44
44
42
42
41
40
39
39
37
35
34
32
31
31
 N1C3W4_B 
 150 50 0 
100
98
97
97
92
92
92
91
88
84
83
82
77
77
76
75
74
73
72
70
70
67
66
65
63
62
62
62
62
58
57
57
54
53
52
52
50
46
45
43
42
41
41
41
40
37
37
36
33
33
 N1C3W4_C 
 150 50 0 
99
99
95
94
92
91
90
87
86
84
83
82
82
81
81
81
80
80
78
78
78
77
77
74
72
71
69
68
66
66
64
63
62
62
61
60
57
55
52
52
46
46
45
45
42
39
39
38
35
32
 N1C3W4_D 
 150 50 0 
100
96
93
90
88
88
86
85
84
84
83
83
80
80
79
77
77
74
70
68
67
64
61
61
58
58
58
56
54
54
53
51
49
48
47
45
45
44
43
41
41
40
40
37
36
34
34
33
33
31
 N1C3W4_E 
 150 50 0 
98
97
96
95
95
94
93
93
93
93
91
90
87
87
80
80
80
77
72
71
68
68
67
64
63
62
60
60
60
57
57
56
54
53
53
52
49
47
45
43
41
41
39
38
38
37
37
36
35
31
 N1C3W4_F 
 150 50 0 
95
92
92
89
88
87
85
84
83
82
82
81
81
81
76
76
73
72
69
68
68
67
65
65
63
63
61
61
57
56
54
54
54
52
50
50
49
47
46
40
40
39
39
39
37
37
34
33
32
30
 N1C3W4_G 
 150 50 0 
99
99
97
97
96
92
90
88
87
87
87
86
86
85
85
83
81
79
78
77
77
74
73
73
73
72
68
65
62
58
56
55
55
55
52
52
51
50
49
46
42
40
39
38
37
36
36
33
31
31
 N1C3W4_H 
 150 50 0 
100
100
99
97
95
94
92
90
88
87
86
85
83
80
79
78
78
78
75
75
74
73
71
70
69
67
65
64
59
58
57
57
55
54
54
52
51
50
49
48
46
46
45
43
43
42
39
38
33
32
 N1C3W4_I 
 150 50 0 
99
98
95
89
88
88
87
87
87
87
86
84
84
83
78
77
74
74
73
73
73
72
72
70
68
67
64
64
64
63
63
60
59
58
56
54
51
50
49
49
39
37
37
36
36
36
34
34
31
30
 N1C3W4_J 
 150 50 0 
100
93
91
91
89
89
88
86
85
84
83
83
82
80
79
78
77
76
76
73
72
68
68
63
63
61
60
60
58
57
57
56
54
53
52
50
48
47
47
45
41
41
36
35
34
34
33
31
31
30
 N1C3W4_K 
 150 50 0 
100
97
96
94
94
93
90
89
89
86
85
84
83
83
83
82
80
78
75
74
72
72
71
70
69
69
66
64
64
63
62
60
59
59
58
57
57
57
57
56
50
50
47
44
43
41
37
36
35
33
 N1C3W4_L 
 150 50 0 
100
100
93
91
88
86
86
84
83
75
75
75
75
75
73
72
70
69
67
66
66
65
61
58
56
55
55
54
52
51
51
51
50
47
45
44
42
42
41
40
39
36
35
35
33
33
33
32
31
30
 N1C3W4_M 
 150 50 0 
99
98
97
95
90
87
87
85
85
83
80
80
76
71
71
70
69
68
67
66
65
63
63
62
62
60
60
60
58
56
55
53
50
49
45
42
42
41
38
36
36
34
34
33
32
32
31
31
31
30
 N1C3W4_N 
 150 50 0 
100
92
91
90
89
85
84
81
80
80
78
78
77
77
76
75
74
73
69
69
68
68
67
67
65
64
63
63
61
60
56
54
54
51
49
45
43
42
39
39
39
38
36
35
34
34
33
32
31
30
 N1C3W4_O 
 150 50 0 
100
100
96
96
94
94
93
85
83
82
82
81
80
79
76
76
76
72
72
72
71
70
70
70
68
67
66
64
64
58
58
57
49
49
46
42
39
39
39
38
37
37
36
35
33
32
32
30
30
30
 N1C3W4_P 
 150 50 0 
100
98
98
96
95
95
94
94
94
91
90
90
89
86
85
85
85
84
78
78
77
76
75
73
72
72
70
70
69
69
68
68
66
60
59
55
50
50
48
48
47
47
44
43
42
40
39
39
37
35
 N1C3W4_Q 
 150 50 0 
100
99
98
97
97
95
92
92
91
90
89
88
87
84
84
83
82
80
80
78
77
77
76
76
75
72
70
68
67
64
63
61
61
60
58
57
57
56
55
49
49
48
40
40
37
35
32
31
31
30
 N1C3W4_R 
 150 50 0 
98
94
94
93
92
92
92
91
85
84
84
81
81
79
79
78
76
73
72
71
68
68
67
67
65
63
61
60
60
59
59
58
57
56
55
48
47
46
45
43
40
40
39
38
37
35
34
32
31
31
 N1C3W4_S 
 150 50 0 
99
98
97
95
95
93
93
92
89
80
80
79
79
77
76
75
74
74
73
71
71
70
68
66
64
63
61
60
57
57
55
54
53
50
50
49
48
47
46
46
42
42
39
38
38
37
37
34
32
31
 N1C3W4_T 
 150 50 0 
100
98
98
97
97
97
96
94
93
90
89
88
88
85
84
84
83
83
81
80
78
76
75
73
73
71
71
70
69
66
65
64
64
63
60
60
57
56
54
54
53
53
48
43
42
38
34
32
31
30
